n_res = 4;
rcap = [25, 27, 80, 77];
rtype = [1, 1, 2, 2];
n_tasks = 16;
modes = [ {1}, {2}, {3}, {4}, {5}, {6}, {7}, {8}, {9}, {10}, {11}, {12}, {13}, {14}, {15}, {16} ];
succ = [ {8, 10, 12}, {5, 7, 8}, {4, 9, 11}, {6, 13}, {9, 14, 16}, {7, 10, 12}, {14}, {9, 11, 13}, {15}, {15, 16}, {15}, {16}, {14}, {}, {}, {} ];
n_opt = 16;
dur = [5, 2, 2, 7, 5, 8, 9, 6, 9, 9, 5, 8, 9, 3, 9, 2];
rreq = [|  6,  8,  3,  8,  2,  8,  8,  5,  2,  9,  5,  4,  7,  6,  8,  8
        |  8,  3,  7,  5,  1,  2,  7,  9,  6, 10,  9,  7,  2,  6,  4,  4
        |  2,  7, 10, 10,  4,  5,  6,  6,  5,  1,  5,  5,  5,  4,  4,  1
        |  3,  6, 10,  5,  3,  3,  8,  4,  2,  3,  9,  1,  6,  8,  3,  3 |];
